13 12 7 0 5 11 9 10 1 2 3 14 4 6 8
2 1 8 14 13 0 5 11 9 12 10 7 3 4 6
0 3 1 7 4 8 14 5 6 2 13 12 9 10 11
9 11 0 7 12 14 6 1 13 10 4 5 3 2 8
8 13 5 10 9 14 12 2 3 0 6 11 7 4 1
12 13 14 9 5 1 6 7 0 3 8 10 4 11 2
9 0 5 4 12 14 6 1 3 8 13 11 2 10 7
12 1 9 14 6 10 2 7 4 11 13 5 3 8 0
6 5 12 4 1 14 9 0 7 8 10 13 2 11 3
8 3 5 4 1 10 7 9 13 2 0 11 6 12 14
4 2 1 0 14 10 9 6 11 12 3 8 7 13 5
8 3 13 14 2 11 5 4 9 12 10 7 1 0 6
7 1 10 4 0 8 12 6 13 2 3 9 11 14 5
8 11 3 7 1 12 6 4 10 13 2 5 14 9 0
5 13 14 6 9 11 7 2 12 8 3 4 10 1 0